c FILE: i160-305

c SOURCE: From steinlib

c DESCRIPTION: Steinlib instance with 160 nodes and 240 edges.

p edge 160 240
e 1 50
e 1 55
e 1 70
e 1 71
e 1 73
e 1 94
e 1 149
e 2 10
e 2 24
e 2 66
e 2 117
e 3 13
e 3 32
e 4 7
e 4 59
e 4 124
e 4 156
e 5 80
e 5 109
e 5 117
e 5 149
e 6 105
e 6 119
e 6 157
e 7 85
e 7 141
e 8 18
e 8 85
e 8 145
e 9 156
e 10 30
e 11 45
e 11 79
e 11 91
e 11 112
e 12 18
e 12 158
e 13 25
e 13 42
e 13 43
e 13 125
e 14 106
e 14 141
e 14 152
e 15 23
e 15 69
e 15 138
e 15 150
e 15 151
e 16 47
e 16 74
e 17 45
e 17 57
e 17 70
e 17 83
e 17 109
e 17 154
e 18 26
e 18 46
e 18 84
e 19 39
e 19 87
e 20 81
e 20 88
e 20 94
e 20 117
e 20 151
e 21 48
e 21 112
e 22 23
e 22 134
e 23 26
e 23 33
e 23 70
e 23 76
e 23 80
e 24 159
e 25 31
e 25 63
e 26 114
e 26 130
e 27 77
e 27 81
e 27 104
e 27 148
e 28 116
e 28 118
e 29 84
e 29 115
e 30 45
e 30 53
e 31 81
e 32 39
e 32 64
e 32 81
e 32 144
e 34 38
e 34 120
e 34 132
e 35 77
e 35 123
e 35 152
e 35 157
e 36 69
e 36 101
e 37 132
e 38 160
e 39 105
e 39 151
e 39 158
e 40 70
e 40 132
e 41 61
e 41 71
e 41 147
e 42 107
e 42 112
e 43 153
e 44 70
e 44 121
e 45 77
e 45 149
e 45 159
e 46 140
e 48 130
e 48 149
e 49 50
e 49 60
e 50 111
e 51 102
e 51 105
e 52 97
e 54 106
e 54 148
e 55 74
e 55 133
e 56 99
e 56 105
e 56 118
e 57 155
e 58 76
e 59 85
e 59 103
e 59 153
e 60 100
e 60 116
e 62 91
e 63 100
e 63 111
e 63 125
e 63 135
e 64 77
e 64 154
e 65 134
e 65 157
e 66 125
e 67 87
e 68 121
e 69 135
e 69 157
e 70 87
e 70 93
e 70 95
e 70 129
e 71 91
e 71 145
e 71 148
e 72 149
e 73 75
e 74 98
e 75 123
e 75 125
e 76 130
e 76 147
e 77 89
e 77 137
e 78 99
e 78 113
e 80 116
e 80 131
e 80 147
e 82 133
e 83 146
e 84 133
e 86 94
e 87 99
e 87 137
e 90 104
e 90 138
e 91 139
e 92 131
e 95 112
e 95 156
e 96 139
e 97 121
e 97 157
e 98 99
e 98 111
e 101 120
e 101 154
e 102 144
e 103 109
e 103 141
e 103 160
e 105 133
e 107 139
e 108 127
e 108 144
e 109 111
e 109 157
e 110 113
e 110 140
e 113 129
e 113 136
e 113 147
e 115 138
e 115 151
e 116 122
e 117 151
e 119 135
e 119 137
e 119 160
e 121 133
e 121 150
e 122 135
e 125 130
e 125 149
e 126 140
e 126 149
e 127 129
e 128 132
e 129 132
e 132 144
e 133 158
e 134 153
e 135 143
e 137 146
e 139 154
e 142 144
e 151 156
